6
87,64-64,64-21,35-12,63-100,100-147,90-189,70-184,64-168,73
64,51-37,56-27,56-26,59-100,100-164,140-196,162-195,132-164,107
24,129-35,162-55,168-62,165-100,100-127,68-143,10-125,20-121,62
29,181-51,198-72,198-100,100-134,79-139,80-131,105
41,94-19,97-34,87-100,100-175,184-175,174-157,162
69,102-49,120-100,100-101,160-111,143
